(set-logic QF_NRA)
; benchmark generated from python API
(set-info :status unknown)
(declare-fun v1y () Real)
(declare-fun oy () Real)
(declare-fun v1x () Real)
(declare-fun R2 () Real)
(declare-fun y1y () Real)
(declare-fun xy () Real)
(declare-fun y1x () Real)
(declare-fun xx () Real)
(declare-fun rho2 () Real)
(declare-fun y2y () Real)
(declare-fun y2x () Real)
(declare-fun a1y () Real)
(declare-fun a1x () Real)
(declare-fun b1y () Real)
(declare-fun b1x () Real)
(assert
 (let ((?x443 (* (- 1.0) v1x)))
 (let ((?x402 (* (- 1.0) R2)))
 (let ((?x316 (+ (+ (+ (+ (/ 1.0 4.0) (* oy oy)) (* v1x v1x)) (* v1y v1y)) ?x402)))
 (= (+ (+ ?x316 ?x443) (* (* (- 2.0) oy) v1y)) 0.0)))))
(assert
 (= (+ (+ (/ 1.0 4.0) (* oy oy)) (* (- 1.0) R2)) 0.0))
(assert
 (let ((?x328 (* (- 1.0) rho2)))
 (let ((?x200 (* y1y y1y)))
 (let ((?x256 (+ (+ (+ (+ (* xx xx) (* xy xy)) (* y1x y1x)) ?x200) ?x328)))
 (= (+ (+ ?x256 (* (* (- 2.0) xx) y1x)) (* (* (- 2.0) xy) y1y)) 0.0)))))
(assert
 (let ((?x328 (* (- 1.0) rho2)))
 (let ((?x494 (* y2y y2y)))
 (let ((?x82 (+ (+ (+ (+ (* xx xx) (* xy xy)) (* y2x y2x)) ?x494) ?x328)))
 (= (+ (+ ?x82 (* (* (- 2.0) xx) y2x)) (* (* (- 2.0) xy) y2y)) 0.0)))))
(assert
 (let ((?x328 (* (- 1.0) rho2)))
 (let ((?x370 (* xy xy)))
 (let ((?x273 (+ (+ (+ (+ (* a1x a1x) (* a1y a1y)) (* xx xx)) ?x370) ?x328)))
 (= (+ (+ ?x273 (* (* (- 2.0) a1x) xx)) (* (* (- 2.0) a1y) xy)) 0.0)))))
(assert
 (let ((?x328 (* (- 1.0) rho2)))
 (let ((?x370 (* xy xy)))
 (let ((?x461 (+ (+ (+ (+ (* b1x b1x) (* b1y b1y)) (* xx xx)) ?x370) ?x328)))
 (= (+ (+ ?x461 (* (* (- 2.0) b1x) xx)) (* (* (- 2.0) b1y) xy)) 0.0)))))
(assert
 (let ((?x70 (+ (+ (+ (+ (- (/ 1.0 4.0)) R2) xx) (* (- 1.0) (* oy oy))) (* (- 1.0) (* xx xx)))))
 (>= (+ (+ ?x70 (* (- 1.0) (* xy xy))) (* (* 2.0 oy) xy)) 0.0)))
(assert
 (let ((?x388 (+ (+ (+ (+ (- (/ 1.0 4.0)) R2) y1x) (* (- 1.0) (* oy oy))) (* (- 1.0) (* y1x y1x)))))
 (>= (+ (+ ?x388 (* (- 1.0) (* y1y y1y))) (* (* 2.0 oy) y1y)) 0.0)))
(assert
 (let ((?x427 (+ (+ (+ (+ (- (/ 1.0 4.0)) R2) y2x) (* (- 1.0) (* oy oy))) (* (- 1.0) (* y2x y2x)))))
 (>= (+ (+ ?x427 (* (- 1.0) (* y2y y2y))) (* (* 2.0 oy) y2y)) 0.0)))
(assert
 (let ((?x329 (* oy oy)))
 (let ((?x178 (* (- 1.0) ?x329)))
 (let ((?x193 (+ (+ (+ (+ (- (/ 1.0 4.0)) R2) a1x) (* (- 1.0) (* a1x a1x))) (* (- 1.0) (* a1y a1y)))))
 (>= (+ (+ ?x193 ?x178) (* (* 2.0 a1y) oy)) 0.0)))))
(assert
 (let ((?x329 (* oy oy)))
 (let ((?x178 (* (- 1.0) ?x329)))
 (let ((?x423 (+ (+ (+ (+ (- (/ 1.0 4.0)) R2) b1x) (* (- 1.0) (* b1x b1x))) (* (- 1.0) (* b1y b1y)))))
 (>= (+ (+ ?x423 ?x178) (* (* 2.0 b1y) oy)) 0.0)))))
(assert
 (>= (+ (+ (* v1x v1x) (* v1y v1y)) (* (- 1.0) v1x)) 0.0))
(assert
 (>= v1x 0.0))
(assert
 (>= (+ 1.0 (* (- 1.0) v1x)) 0.0))
(assert
 (> R2 0.0))
(assert
 (> rho2 0.0))
(assert
 (let ((?x197 (* (- 1.0) v1y)))
 (let ((?x372 (* ?x197 xy)))
 (> ?x372 0.0))))
(assert
 (let ((?x165 (+ (+ (* v1y v1y) (* (* (- 1.0) v1y) xy)) (* (* (- 1.0) xx) (* v1y v1y)))))
 (> (+ ?x165 (* (* v1x v1y) xy)) 0.0)))
(assert
 (> (+ (* xx (* v1y v1y)) (* (* (* (- 1.0) v1x) v1y) xy)) 0.0))
(assert
 (let ((?x197 (* (- 1.0) v1y)))
 (let ((?x198 (* ?x197 y1y)))
 (> ?x198 0.0))))
(assert
 (let ((?x194 (+ (+ (* v1y v1y) (* (* (- 1.0) v1y) y1y)) (* (* (- 1.0) y1x) (* v1y v1y)))))
 (> (+ ?x194 (* (* v1x v1y) y1y)) 0.0)))
(assert
 (> (+ (* y1x (* v1y v1y)) (* (* (* (- 1.0) v1x) v1y) y1y)) 0.0))
(assert
 (let ((?x197 (* (- 1.0) v1y)))
 (let ((?x414 (* ?x197 y2y)))
 (> ?x414 0.0))))
(assert
 (let ((?x176 (+ (+ (* v1y v1y) (* (* (- 1.0) v1y) y2y)) (* (* (- 1.0) y2x) (* v1y v1y)))))
 (> (+ ?x176 (* (* v1x v1y) y2y)) 0.0)))
(assert
 (> (+ (* y2x (* v1y v1y)) (* (* (* (- 1.0) v1x) v1y) y2y)) 0.0))
(assert
 (let ((?x426 (* a1y v1y)))
 (> ?x426 0.0)))
(assert
 (let ((?x444 (* (- 1.0) a1y)))
 (let ((?x300 (* ?x444 v1x)))
 (let ((?x447 (* ?x300 v1y)))
 (let ((?x426 (* a1y v1y)))
 (let ((?x480 (+ (+ (+ (* (- 1.0) (* v1y v1y)) (* a1x (* v1y v1y))) ?x426) ?x447)))
 (> ?x480 0.0)))))))
(assert
 (> (+ (* a1x (* v1y v1y)) (* (* (* (- 1.0) a1y) v1x) v1y)) 0.0))
(assert
 (> (* b1y v1y) 0.0))
(assert
 (let ((?x212 (* b1y v1x)))
 (let ((?x284 (* ?x212 v1y)))
 (let ((?x367 (+ (+ (* v1y v1y) (* (* (- 1.0) b1x) (* v1y v1y))) (* (* (- 1.0) b1y) v1y))))
 (> (+ ?x367 ?x284) 0.0)))))
(assert
 (> (+ (* (* (- 1.0) b1x) (* v1y v1y)) (* (* b1y v1x) v1y)) 0.0))
(assert
 (> (+ (* y1x y2y) (* (* (- 1.0) y1y) y2x)) 0.0))
(assert
 (> (+ (* xy y1x) (* (* (- 1.0) xx) y1y)) 0.0))
(assert
 (let ((?x473 (* (- 1.0) y1y)))
 (> ?x473 0.0)))
(assert
 (> (+ (* a1y y1x) (* (* (- 1.0) a1x) y1y)) 0.0))
(assert
 (> (+ (* v1y y1x) (* (* (- 1.0) v1x) y1y)) 0.0))
(assert
 (> (+ (* b1y y1x) (* (* (- 1.0) b1x) y1y)) 0.0))
(assert
 (> (+ (* xy y2x) (* (* (- 1.0) xx) y2y)) 0.0))
(assert
 (let ((?x179 (* (- 1.0) y2y)))
 (> ?x179 0.0)))
(assert
 (> (+ (* a1y y2x) (* (* (- 1.0) a1x) y2y)) 0.0))
(assert
 (> (+ (* v1y y2x) (* (* (- 1.0) v1x) y2y)) 0.0))
(assert
 (> (+ (* b1y y2x) (* (* (- 1.0) b1x) y2y)) 0.0))
(assert
 (let ((?x21 (* (- 1.0) xy)))
 (> ?x21 0.0)))
(assert
 (> (+ (* a1y xx) (* (* (- 1.0) a1x) xy)) 0.0))
(assert
 (> (+ (* v1y xx) (* (* (- 1.0) v1x) xy)) 0.0))
(assert
 (> (+ (* b1y xx) (* (* (- 1.0) b1x) xy)) 0.0))
(assert
 (> a1y 0.0))
(assert
 (> v1y 0.0))
(assert
 (> b1y 0.0))
(assert
 (> (+ (* a1x v1y) (* (* (- 1.0) a1y) v1x)) 0.0))
(assert
 (> (+ (* a1x b1y) (* (* (- 1.0) a1y) b1x)) 0.0))
(assert
 (> (+ (* b1y v1x) (* (* (- 1.0) b1x) v1y)) 0.0))
(assert
 (let ((?x473 (* (- 1.0) y1y)))
 (let ((?x330 (* ?x473 y2x)))
 (let ((?x56 (* (- 1.0) xx)))
 (let ((?x432 (* ?x56 y2y)))
 (let ((?x114 (+ (+ (+ (+ (* xx y1y) (* xy y2x)) (* y1x y2y)) ?x432) (* (* (- 1.0) xy) y1x))))
 (> (+ ?x114 ?x330) 0.0)))))))
(assert
 (let ((?x473 (* (- 1.0) y1y)))
 (let ((?x330 (* ?x473 y2x)))
 (> (+ (+ (+ y1y (* (- 1.0) y2y)) (* y1x y2y)) ?x330) 0.0))))
(assert
 (let ((?x473 (* (- 1.0) y1y)))
 (let ((?x330 (* ?x473 y2x)))
 (let ((?x444 (* (- 1.0) a1y)))
 (let ((?x419 (* ?x444 y1x)))
 (let ((?x137 (* (- 1.0) a1x)))
 (let ((?x225 (* ?x137 y2y)))
 (let ((?x125 (+ (+ (+ (+ (* a1x y1y) (* a1y y2x)) (* y1x y2y)) ?x225) ?x419)))
 (> (+ ?x125 ?x330) 0.0)))))))))
(assert
 (let ((?x473 (* (- 1.0) y1y)))
 (let ((?x330 (* ?x473 y2x)))
 (let ((?x197 (* (- 1.0) v1y)))
 (let ((?x315 (* ?x197 y1x)))
 (let ((?x443 (* (- 1.0) v1x)))
 (let ((?x368 (* ?x443 y2y)))
 (let ((?x487 (+ (+ (+ (+ (* v1x y1y) (* v1y y2x)) (* y1x y2y)) ?x368) ?x315)))
 (> (+ ?x487 ?x330) 0.0)))))))))
(assert
 (let ((?x473 (* (- 1.0) y1y)))
 (let ((?x330 (* ?x473 y2x)))
 (let ((?x442 (* (- 1.0) b1y)))
 (let ((?x91 (* ?x442 y1x)))
 (let ((?x100 (* (- 1.0) b1x)))
 (let ((?x160 (* ?x100 y2y)))
 (let ((?x352 (+ (+ (+ (+ (* b1x y1y) (* b1y y2x)) (* y1x y2y)) ?x160) ?x91)))
 (> (+ ?x352 ?x330) 0.0)))))))))
(assert
 (let ((?x56 (* (- 1.0) xx)))
 (let ((?x353 (* ?x56 y1y)))
 (> (+ (+ (+ y1y (* (- 1.0) xy)) (* xy y1x)) ?x353) 0.0))))
(assert
 (let ((?x56 (* (- 1.0) xx)))
 (let ((?x353 (* ?x56 y1y)))
 (let ((?x444 (* (- 1.0) a1y)))
 (let ((?x419 (* ?x444 y1x)))
 (let ((?x137 (* (- 1.0) a1x)))
 (let ((?x422 (* ?x137 xy)))
 (let ((?x255 (+ (+ (+ (+ (* a1x y1y) (* a1y xx)) (* xy y1x)) ?x422) ?x419)))
 (> (+ ?x255 ?x353) 0.0)))))))))
(assert
 (let ((?x56 (* (- 1.0) xx)))
 (let ((?x353 (* ?x56 y1y)))
 (let ((?x197 (* (- 1.0) v1y)))
 (let ((?x315 (* ?x197 y1x)))
 (let ((?x443 (* (- 1.0) v1x)))
 (let ((?x396 (* ?x443 xy)))
 (let ((?x243 (+ (+ (+ (+ (* v1x y1y) (* v1y xx)) (* xy y1x)) ?x396) ?x315)))
 (> (+ ?x243 ?x353) 0.0)))))))))
(assert
 (let ((?x56 (* (- 1.0) xx)))
 (let ((?x353 (* ?x56 y1y)))
 (let ((?x442 (* (- 1.0) b1y)))
 (let ((?x91 (* ?x442 y1x)))
 (let ((?x100 (* (- 1.0) b1x)))
 (let ((?x380 (* ?x100 xy)))
 (let ((?x142 (+ (+ (+ (+ (* b1x y1y) (* b1y xx)) (* xy y1x)) ?x380) ?x91)))
 (> (+ ?x142 ?x353) 0.0)))))))))
(assert
 (let ((?x444 (* (- 1.0) a1y)))
 (let ((?x419 (* ?x444 y1x)))
 (> (+ (+ (+ a1y (* (- 1.0) y1y)) (* a1x y1y)) ?x419) 0.0))))
(assert
 (let ((?x197 (* (- 1.0) v1y)))
 (let ((?x315 (* ?x197 y1x)))
 (> (+ (+ (+ v1y (* (- 1.0) y1y)) (* v1x y1y)) ?x315) 0.0))))
(assert
 (let ((?x442 (* (- 1.0) b1y)))
 (let ((?x91 (* ?x442 y1x)))
 (> (+ (+ (+ b1y (* (- 1.0) y1y)) (* b1x y1y)) ?x91) 0.0))))
(assert
 (let ((?x197 (* (- 1.0) v1y)))
 (let ((?x315 (* ?x197 y1x)))
 (let ((?x444 (* (- 1.0) a1y)))
 (let ((?x300 (* ?x444 v1x)))
 (let ((?x137 (* (- 1.0) a1x)))
 (let ((?x428 (* ?x137 y1y)))
 (let ((?x317 (+ (+ (+ (+ (* a1x v1y) (* a1y y1x)) (* v1x y1y)) ?x428) ?x300)))
 (> (+ ?x317 ?x315) 0.0)))))))))
(assert
 (let ((?x442 (* (- 1.0) b1y)))
 (let ((?x91 (* ?x442 y1x)))
 (let ((?x444 (* (- 1.0) a1y)))
 (let ((?x180 (* ?x444 b1x)))
 (let ((?x137 (* (- 1.0) a1x)))
 (let ((?x428 (* ?x137 y1y)))
 (let ((?x59 (+ (+ (+ (+ (* a1x b1y) (* a1y y1x)) (* b1x y1y)) ?x428) ?x180)))
 (> (+ ?x59 ?x91) 0.0)))))))))
(assert
 (let ((?x443 (* (- 1.0) v1x)))
 (let ((?x239 (* ?x443 y1y)))
 (let ((?x442 (* (- 1.0) b1y)))
 (let ((?x91 (* ?x442 y1x)))
 (let ((?x100 (* (- 1.0) b1x)))
 (let ((?x378 (* ?x100 v1y)))
 (let ((?x357 (+ (+ (+ (+ (* b1x y1y) (* b1y v1x)) (* v1y y1x)) ?x378) ?x91)))
 (> (+ ?x357 ?x239) 0.0)))))))))
(assert
 (let ((?x56 (* (- 1.0) xx)))
 (let ((?x432 (* ?x56 y2y)))
 (> (+ (+ (+ y2y (* (- 1.0) xy)) (* xy y2x)) ?x432) 0.0))))
(assert
 (let ((?x56 (* (- 1.0) xx)))
 (let ((?x432 (* ?x56 y2y)))
 (let ((?x444 (* (- 1.0) a1y)))
 (let ((?x171 (* ?x444 y2x)))
 (let ((?x137 (* (- 1.0) a1x)))
 (let ((?x422 (* ?x137 xy)))
 (let ((?x231 (+ (+ (+ (+ (* a1x y2y) (* a1y xx)) (* xy y2x)) ?x422) ?x171)))
 (> (+ ?x231 ?x432) 0.0)))))))))
(assert
 (let ((?x56 (* (- 1.0) xx)))
 (let ((?x432 (* ?x56 y2y)))
 (let ((?x197 (* (- 1.0) v1y)))
 (let ((?x65 (* ?x197 y2x)))
 (let ((?x443 (* (- 1.0) v1x)))
 (let ((?x396 (* ?x443 xy)))
 (let ((?x77 (+ (+ (+ (+ (* v1x y2y) (* v1y xx)) (* xy y2x)) ?x396) ?x65)))
 (> (+ ?x77 ?x432) 0.0)))))))))
(assert
 (let ((?x56 (* (- 1.0) xx)))
 (let ((?x432 (* ?x56 y2y)))
 (let ((?x442 (* (- 1.0) b1y)))
 (let ((?x150 (* ?x442 y2x)))
 (let ((?x100 (* (- 1.0) b1x)))
 (let ((?x380 (* ?x100 xy)))
 (let ((?x111 (+ (+ (+ (+ (* b1x y2y) (* b1y xx)) (* xy y2x)) ?x380) ?x150)))
 (> (+ ?x111 ?x432) 0.0)))))))))
(assert
 (let ((?x444 (* (- 1.0) a1y)))
 (let ((?x171 (* ?x444 y2x)))
 (> (+ (+ (+ a1y (* (- 1.0) y2y)) (* a1x y2y)) ?x171) 0.0))))
(assert
 (let ((?x197 (* (- 1.0) v1y)))
 (let ((?x65 (* ?x197 y2x)))
 (> (+ (+ (+ v1y (* (- 1.0) y2y)) (* v1x y2y)) ?x65) 0.0))))
(assert
 (let ((?x442 (* (- 1.0) b1y)))
 (let ((?x150 (* ?x442 y2x)))
 (> (+ (+ (+ b1y (* (- 1.0) y2y)) (* b1x y2y)) ?x150) 0.0))))
(assert
 (let ((?x197 (* (- 1.0) v1y)))
 (let ((?x65 (* ?x197 y2x)))
 (let ((?x444 (* (- 1.0) a1y)))
 (let ((?x300 (* ?x444 v1x)))
 (let ((?x137 (* (- 1.0) a1x)))
 (let ((?x225 (* ?x137 y2y)))
 (let ((?x78 (+ (+ (+ (+ (* a1x v1y) (* a1y y2x)) (* v1x y2y)) ?x225) ?x300)))
 (> (+ ?x78 ?x65) 0.0)))))))))
(assert
 (let ((?x442 (* (- 1.0) b1y)))
 (let ((?x150 (* ?x442 y2x)))
 (let ((?x444 (* (- 1.0) a1y)))
 (let ((?x180 (* ?x444 b1x)))
 (let ((?x137 (* (- 1.0) a1x)))
 (let ((?x225 (* ?x137 y2y)))
 (let ((?x196 (+ (+ (+ (+ (* a1x b1y) (* a1y y2x)) (* b1x y2y)) ?x225) ?x180)))
 (> (+ ?x196 ?x150) 0.0)))))))))
(assert
 (let ((?x443 (* (- 1.0) v1x)))
 (let ((?x368 (* ?x443 y2y)))
 (let ((?x442 (* (- 1.0) b1y)))
 (let ((?x150 (* ?x442 y2x)))
 (let ((?x100 (* (- 1.0) b1x)))
 (let ((?x378 (* ?x100 v1y)))
 (let ((?x398 (+ (+ (+ (+ (* b1x y2y) (* b1y v1x)) (* v1y y2x)) ?x378) ?x150)))
 (> (+ ?x398 ?x368) 0.0)))))))))
(assert
 (let ((?x280 (+ (+ (+ a1y (* (- 1.0) xy)) (* a1x xy)) (* (* (- 1.0) a1y) xx))))
 (> ?x280 0.0)))
(assert
 (let ((?x197 (* (- 1.0) v1y)))
 (let ((?x743 (* ?x197 xx)))
 (> (+ (+ (+ v1y (* (- 1.0) xy)) (* v1x xy)) ?x743) 0.0))))
(assert
 (let ((?x442 (* (- 1.0) b1y)))
 (let ((?x81 (* ?x442 xx)))
 (> (+ (+ (+ b1y (* (- 1.0) xy)) (* b1x xy)) ?x81) 0.0))))
(assert
 (let ((?x197 (* (- 1.0) v1y)))
 (let ((?x743 (* ?x197 xx)))
 (let ((?x444 (* (- 1.0) a1y)))
 (let ((?x300 (* ?x444 v1x)))
 (let ((?x137 (* (- 1.0) a1x)))
 (let ((?x422 (* ?x137 xy)))
 (let ((?x571 (+ (+ (+ (+ (* a1x v1y) (* a1y xx)) (* v1x xy)) ?x422) ?x300)))
 (> (+ ?x571 ?x743) 0.0)))))))))
(assert
 (let ((?x442 (* (- 1.0) b1y)))
 (let ((?x81 (* ?x442 xx)))
 (let ((?x444 (* (- 1.0) a1y)))
 (let ((?x180 (* ?x444 b1x)))
 (let ((?x137 (* (- 1.0) a1x)))
 (let ((?x422 (* ?x137 xy)))
 (let ((?x61 (+ (+ (+ (+ (* a1x b1y) (* a1y xx)) (* b1x xy)) ?x422) ?x180)))
 (> (+ ?x61 ?x81) 0.0)))))))))
(assert
 (let ((?x443 (* (- 1.0) v1x)))
 (let ((?x396 (* ?x443 xy)))
 (let ((?x442 (* (- 1.0) b1y)))
 (let ((?x81 (* ?x442 xx)))
 (let ((?x100 (* (- 1.0) b1x)))
 (let ((?x378 (* ?x100 v1y)))
 (let ((?x145 (+ (+ (+ (+ (* b1x xy) (* b1y v1x)) (* v1y xx)) ?x378) ?x81)))
 (> (+ ?x145 ?x396) 0.0)))))))))
(assert
 (let ((?x444 (* (- 1.0) a1y)))
 (let ((?x300 (* ?x444 v1x)))
 (> (+ (+ (+ a1y (* (- 1.0) v1y)) (* a1x v1y)) ?x300) 0.0))))
(assert
 (let ((?x444 (* (- 1.0) a1y)))
 (let ((?x180 (* ?x444 b1x)))
 (> (+ (+ (+ a1y (* (- 1.0) b1y)) (* a1x b1y)) ?x180) 0.0))))
(assert
 (let ((?x100 (* (- 1.0) b1x)))
 (let ((?x378 (* ?x100 v1y)))
 (> (+ (+ (+ v1y (* (- 1.0) b1y)) (* b1y v1x)) ?x378) 0.0))))
(assert
 (let ((?x100 (* (- 1.0) b1x)))
(let ((?x378 (* ?x100 v1y)))
(let ((?x444 (* (- 1.0) a1y)))
(let ((?x300 (* ?x444 v1x)))
(let ((?x403 (+ (+ (+ (* a1x v1y) (* a1y b1x)) (* b1y v1x)) (* (* (- 1.0) a1x) b1y))))
(> (+ (+ ?x403 ?x300) ?x378) 0.0)))))))
(check-sat)
